c parsing input formula with 1180 variables and 98102 clauses
c finished parsing
c detected empty clause; start verification via backward checking
c 12310 of 98102 clauses in core                            
c 92452 of 244577 lemmas in core using 2151862 resolution steps
c 0 RAT lemmas in core; 0 redundant literals in core lemmas
s VERIFIED
c verification time: 19.574 seconds
